nK = 3174;
nT = 8;
nI = 21;
L = 35;
TT = 677;
np = 1;
nc = 3;
b = [43, 50, 47, 47, 67, 40, 42, 30, 68, 51, 26, 26, 40, 67, 65, 63, 30, 20, 55, 47, 58];
d = [114, 147, 112, 134, 149, 80, 85, 120, 150, 86, 44, 67, 60, 145, 113, 109, 74, 84, 101, 91, 123];
m = [1.1, 1.7, 1.7, 2.3, 2.4, 2.4, 1.4, 1.5, 1, 2.2, 2.3, 2.2, 1.5, 1.2, 2.5, 1.1, 1.8, 2.4, 1.7, 2.1, 1.6];
pt = [0.21, 0.24, 0.33, 0.27, 0.24, 0.24, 0.28, 0.22];
st = [10.5, 13.92, 18.15, 12.69, 12.48, 11.28, 12.88, 9.24];
arc = {<1, 0, 1, 1, 0, 0, 0, [1, 1, 1, 1, 1, 1, 1, 1]>, <2, 1, 2, 1, 0, 0, 0, [1, 1, 1, 1, 1, 1, 1, 1]>, <3, 2, 3, 1, 0, 0, 0, [1, 1, 1, 1, 1, 1, 1, 1]>, <4, 3, 4, 1, 0, 0, 0, [1, 1, 1, 1, 1, 1, 1, 1]>, <5, 4, 5, 1, 0, 0, 0, [1, 1, 1, 1, 1, 1, 1, 1]>, <6, 5, 6, 1, 0, 0, 0, [1, 1, 1, 1, 1, 1, 1, 1]>, <7, 6, 7, 1, 0, 0, 0, [1, 1, 1, 1, 1, 1, 1, 1]>, <8, 7, 8, 1, 0, 0, 0, [1, 1, 1, 1, 1, 1, 1, 1]>, <9, 8, 9, 1, 0, 0, 0, [1, 1, 1, 1, 1, 1, 1, 1]>, <10, 9, 10, 1, 0, 0, 0, [1, 1, 1, 1, 1, 1, 1, 1]>, <11, 10, 11, 1, 0, 0, 0, [1, 1, 1, 1, 1, 1, 1, 1]>, <12, 11, 12, 1, 0, 0, 0, [1, 1, 1, 1, 1, 1, 1, 1]>, <13, 12, 13, 1, 0, 0, 0, [1, 1, 1, 1, 1, 1, 1, 1]>, <14, 13, 14, 1, 0, 0, 0, [1, 1, 1, 1, 1, 1, 1, 1]>, <15, 14, 15, 1, 0, 0, 0, [1, 1, 1, 1, 1, 1, 1, 1]>, <16, 15, 16, 1, 0, 0, 0, [1, 1, 1, 1, 1, 1, 1, 1]>, <17, 16, 17, 1, 0, 0, 0, [1, 1, 1, 1, 1, 1, 1, 1]>, <18, 17, 18, 1, 0, 0, 0, [1, 1, 1, 1, 1, 1, 1, 1]>, <19, 18, 19, 1, 0, 0, 0, [1, 1, 1, 1, 1, 1, 1, 1]>, <20, 19, 20, 1, 0, 0, 0, [1, 1, 1, 1, 1, 1, 1, 1]>, <21, 20, 21, 1, 0, 0, 0, [1, 1, 1, 1, 1, 1, 1, 1]>, <22, 21, 22, 1, 0, 0, 0, [1, 1, 1, 1, 1, 1, 1, 1]>, <23, 22, 23, 1, 0, 0, 0, [1, 1, 1, 1, 1, 1, 1, 1]>, <24, 23, 24, 1, 0, 0, 0, [1, 1, 1, 1, 1, 1, 1, 1]>, <25, 24, 25, 1, 0, 0, 0, [1, 1, 1, 1, 1, 1, 1, 1]>, <26, 25, 26, 1, 0, 0, 0, [1, 1, 1, 1, 1, 1, 1, 1]>, <27, 26, 27, 1, 0, 0, 0, [1, 1, 1, 1, 1, 1, 1, 1]>, <28, 27, 28, 1, 0, 0, 0, [1, 1, 1, 1, 1, 1, 1, 1]>, <29, 28, 29, 1, 0, 0, 0, [1, 1, 1, 1, 1, 1, 1, 1]>, <30, 29, 30, 1, 0, 0, 0, [1, 1, 1, 1, 1, 1, 1, 1]>, <31, 30, 31, 1, 0, 0, 0, [1, 1, 1, 1, 1, 1, 1, 1]>, <32, 31, 32, 1, 0, 0, 0, [1, 1, 1, 1, 1, 1, 1, 1]>, <33, 32, 33, 1, 0, 0, 0, [1, 1, 1, 1, 1, 1, 1, 1]>, <34, 33, 34, 1, 0, 0, 0, [1, 1, 1, 1, 1, 1, 1, 1]>, <35, 34, 35, 1, 0, 0, 0, [1, 1, 1, 1, 1, 1, 1, 1]>, <36, 0, 18, 18, 1, 0, 1, [1, 1, 1, 1, 0, 0, 0, 0]>, <37, 1, 19, 18, 1, 0, 1, [1, 1, 1, 1, 0, 0, 0, 0]>, <38, 2, 20, 18, 1, 0, 1, [1, 1, 1, 1, 0, 0, 0, 0]>, <39, 3, 21, 18, 1, 0, 1, [1, 1, 1, 1, 0, 0, 0, 0]>, <40, 4, 22, 18, 1, 0, 1, [1, 1, 1, 1, 0, 0, 0, 0]>, <41, 5, 23, 18, 1, 0, 1, [1, 1, 1, 1, 0, 0, 0, 0]>, <42, 6, 24, 18, 1, 0, 1, [1, 1, 1, 1, 0, 0, 0, 0]>, <43, 8, 26, 18, 1, 0, 1, [1, 1, 1, 1, 0, 0, 0, 0]>, <44, 9, 27, 18, 1, 0, 1, [1, 1, 1, 1, 0, 0, 0, 0]>, <45, 10, 28, 18, 1, 0, 1, [1, 1, 1, 1, 0, 0, 0, 0]>, <46, 11, 29, 18, 1, 0, 1, [1, 1, 1, 1, 0, 0, 0, 0]>, <47, 12, 30, 18, 1, 0, 1, [1, 1, 1, 1, 0, 0, 0, 0]>, <48, 13, 31, 18, 1, 0, 1, [1, 1, 1, 1, 0, 0, 0, 0]>, <49, 14, 32, 18, 1, 0, 1, [1, 1, 1, 1, 0, 0, 0, 0]>, <50, 15, 33, 18, 1, 0, 1, [1, 1, 1, 1, 0, 0, 0, 0]>, <51, 16, 34, 18, 1, 0, 1, [1, 1, 1, 1, 0, 0, 0, 0]>, <52, 17, 35, 18, 1, 0, 1, [1, 1, 1, 1, 0, 0, 0, 0]>, <53, 0, 17, 17, 2, 0, 0, [1, 1, 0, 0, 0, 0, 1, 1]>, <54, 1, 18, 17, 2, 0, 0, [1, 1, 0, 0, 0, 0, 1, 1]>, <55, 2, 19, 17, 2, 0, 0, [1, 1, 0, 0, 0, 0, 1, 1]>, <56, 3, 20, 17, 2, 0, 0, [1, 1, 0, 0, 0, 0, 1, 1]>, <57, 4, 21, 17, 2, 0, 0, [1, 1, 0, 0, 0, 0, 1, 1]>, <58, 5, 22, 17, 2, 0, 0, [1, 1, 0, 0, 0, 0, 1, 1]>, <59, 6, 23, 17, 2, 0, 0, [1, 1, 0, 0, 0, 0, 1, 1]>, <60, 9, 26, 17, 2, 0, 0, [1, 1, 0, 0, 0, 0, 1, 1]>, <61, 10, 27, 17, 2, 0, 0, [1, 1, 0, 0, 0, 0, 1, 1]>, <62, 11, 28, 17, 2, 0, 0, [1, 1, 0, 0, 0, 0, 1, 1]>, <63, 12, 29, 17, 2, 0, 0, [1, 1, 0, 0, 0, 0, 1, 1]>, <64, 13, 30, 17, 2, 0, 0, [1, 1, 0, 0, 0, 0, 1, 1]>, <65, 14, 31, 17, 2, 0, 0, [1, 1, 0, 0, 0, 0, 1, 1]>, <66, 15, 32, 17, 2, 0, 0, [1, 1, 0, 0, 0, 0, 1, 1]>, <67, 16, 33, 17, 2, 0, 0, [1, 1, 0, 0, 0, 0, 1, 1]>, <68, 17, 34, 17, 2, 0, 0, [1, 1, 0, 0, 0, 0, 1, 1]>, <69, 18, 35, 17, 2, 0, 0, [1, 1, 0, 0, 0, 0, 1, 1]>, <70, 0, 21, 21, 3, 0, 1, [0, 0, 0, 0, 1, 1, 1, 1]>, <71, 1, 22, 21, 3, 0, 1, [0, 0, 0, 0, 1, 1, 1, 1]>, <72, 2, 23, 21, 3, 0, 1, [0, 0, 0, 0, 1, 1, 1, 1]>, <73, 3, 24, 21, 3, 0, 1, [0, 0, 0, 0, 1, 1, 1, 1]>, <74, 4, 25, 21, 3, 0, 1, [0, 0, 0, 0, 1, 1, 1, 1]>, <75, 5, 26, 21, 3, 0, 1, [0, 0, 0, 0, 1, 1, 1, 1]>, <76, 6, 27, 21, 3, 0, 1, [0, 0, 0, 0, 1, 1, 1, 1]>, <77, 7, 28, 21, 3, 0, 1, [0, 0, 0, 0, 1, 1, 1, 1]>, <78, 8, 29, 21, 3, 0, 1, [0, 0, 0, 0, 1, 1, 1, 1]>, <79, 9, 30, 21, 3, 0, 1, [0, 0, 0, 0, 1, 1, 1, 1]>, <80, 10, 31, 21, 3, 0, 1, [0, 0, 0, 0, 1, 1, 1, 1]>, <81, 11, 32, 21, 3, 0, 1, [0, 0, 0, 0, 1, 1, 1, 1]>, <82, 12, 33, 21, 3, 0, 1, [0, 0, 0, 0, 1, 1, 1, 1]>, <83, 13, 34, 21, 3, 0, 1, [0, 0, 0, 0, 1, 1, 1, 1]>, <84, 14, 35, 21, 3, 0, 1, [0, 0, 0, 0, 1, 1, 1, 1]>, <85, 0, 21, 21, 4, 0, 1, [1, 1, 1, 1, 0, 0, 0, 0]>, <86, 1, 22, 21, 4, 0, 1, [1, 1, 1, 1, 0, 0, 0, 0]>, <87, 2, 23, 21, 4, 0, 1, [1, 1, 1, 1, 0, 0, 0, 0]>, <88, 3, 24, 21, 4, 0, 1, [1, 1, 1, 1, 0, 0, 0, 0]>, <89, 4, 25, 21, 4, 0, 1, [1, 1, 1, 1, 0, 0, 0, 0]>, <90, 5, 26, 21, 4, 0, 1, [1, 1, 1, 1, 0, 0, 0, 0]>, <91, 6, 27, 21, 4, 0, 1, [1, 1, 1, 1, 0, 0, 0, 0]>, <92, 7, 28, 21, 4, 0, 1, [1, 1, 1, 1, 0, 0, 0, 0]>, <93, 8, 29, 21, 4, 0, 1, [1, 1, 1, 1, 0, 0, 0, 0]>, <94, 9, 30, 21, 4, 0, 1, [1, 1, 1, 1, 0, 0, 0, 0]>, <95, 10, 31, 21, 4, 0, 1, [1, 1, 1, 1, 0, 0, 0, 0]>, <96, 11, 32, 21, 4, 0, 1, [1, 1, 1, 1, 0, 0, 0, 0]>, <97, 12, 33, 21, 4, 0, 1, [1, 1, 1, 1, 0, 0, 0, 0]>, <98, 13, 34, 21, 4, 0, 1, [1, 1, 1, 1, 0, 0, 0, 0]>, <99, 14, 35, 21, 4, 0, 1, [1, 1, 1, 1, 0, 0, 0, 0]>, <100, 0, 19, 19, 5, 0, 1, [1, 0, 0, 0, 0, 1, 1, 1]>, <101, 1, 20, 19, 5, 0, 1, [1, 0, 0, 0, 0, 1, 1, 1]>, <102, 2, 21, 19, 5, 0, 1, [1, 0, 0, 0, 0, 1, 1, 1]>, <103, 3, 22, 19, 5, 0, 1, [1, 0, 0, 0, 0, 1, 1, 1]>, <104, 4, 23, 19, 5, 0, 1, [1, 0, 0, 0, 0, 1, 1, 1]>, <105, 5, 24, 19, 5, 0, 1, [1, 0, 0, 0, 0, 1, 1, 1]>, <106, 6, 25, 19, 5, 0, 1, [1, 0, 0, 0, 0, 1, 1, 1]>, <107, 7, 26, 19, 5, 0, 1, [1, 0, 0, 0, 0, 1, 1, 1]>, <108, 8, 27, 19, 5, 0, 1, [1, 0, 0, 0, 0, 1, 1, 1]>, <109, 9, 28, 19, 5, 0, 1, [1, 0, 0, 0, 0, 1, 1, 1]>, <110, 10, 29, 19, 5, 0, 1, [1, 0, 0, 0, 0, 1, 1, 1]>, <111, 11, 30, 19, 5, 0, 1, [1, 0, 0, 0, 0, 1, 1, 1]>, <112, 12, 31, 19, 5, 0, 1, [1, 0, 0, 0, 0, 1, 1, 1]>, <113, 13, 32, 19, 5, 0, 1, [1, 0, 0, 0, 0, 1, 1, 1]>, <114, 14, 33, 19, 5, 0, 1, [1, 0, 0, 0, 0, 1, 1, 1]>, <115, 15, 34, 19, 5, 0, 1, [1, 0, 0, 0, 0, 1, 1, 1]>, <116, 16, 35, 19, 5, 0, 1, [1, 0, 0, 0, 0, 1, 1, 1]>, <117, 0, 17, 17, 6, 0, 0, [0, 0, 0, 1, 1, 1, 1, 0]>, <118, 1, 18, 17, 6, 0, 0, [0, 0, 0, 1, 1, 1, 1, 0]>, <119, 2, 19, 17, 6, 0, 0, [0, 0, 0, 1, 1, 1, 1, 0]>, <120, 3, 20, 17, 6, 0, 0, [0, 0, 0, 1, 1, 1, 1, 0]>, <121, 4, 21, 17, 6, 0, 0, [0, 0, 0, 1, 1, 1, 1, 0]>, <122, 5, 22, 17, 6, 0, 0, [0, 0, 0, 1, 1, 1, 1, 0]>, <123, 6, 23, 17, 6, 0, 0, [0, 0, 0, 1, 1, 1, 1, 0]>, <124, 9, 26, 17, 6, 0, 0, [0, 0, 0, 1, 1, 1, 1, 0]>, <125, 10, 27, 17, 6, 0, 0, [0, 0, 0, 1, 1, 1, 1, 0]>, <126, 11, 28, 17, 6, 0, 0, [0, 0, 0, 1, 1, 1, 1, 0]>, <127, 12, 29, 17, 6, 0, 0, [0, 0, 0, 1, 1, 1, 1, 0]>, <128, 13, 30, 17, 6, 0, 0, [0, 0, 0, 1, 1, 1, 1, 0]>, <129, 14, 31, 17, 6, 0, 0, [0, 0, 0, 1, 1, 1, 1, 0]>, <130, 15, 32, 17, 6, 0, 0, [0, 0, 0, 1, 1, 1, 1, 0]>, <131, 16, 33, 17, 6, 0, 0, [0, 0, 0, 1, 1, 1, 1, 0]>, <132, 17, 34, 17, 6, 0, 0, [0, 0, 0, 1, 1, 1, 1, 0]>, <133, 18, 35, 17, 6, 0, 0, [0, 0, 0, 1, 1, 1, 1, 0]>, <134, 0, 18, 18, 7, 0, 1, [1, 1, 0, 0, 0, 0, 1, 1]>, <135, 1, 19, 18, 7, 0, 1, [1, 1, 0, 0, 0, 0, 1, 1]>, <136, 2, 20, 18, 7, 0, 1, [1, 1, 0, 0, 0, 0, 1, 1]>, <137, 3, 21, 18, 7, 0, 1, [1, 1, 0, 0, 0, 0, 1, 1]>, <138, 4, 22, 18, 7, 0, 1, [1, 1, 0, 0, 0, 0, 1, 1]>, <139, 5, 23, 18, 7, 0, 1, [1, 1, 0, 0, 0, 0, 1, 1]>, <140, 6, 24, 18, 7, 0, 1, [1, 1, 0, 0, 0, 0, 1, 1]>, <141, 8, 26, 18, 7, 0, 1, [1, 1, 0, 0, 0, 0, 1, 1]>, <142, 9, 27, 18, 7, 0, 1, [1, 1, 0, 0, 0, 0, 1, 1]>, <143, 10, 28, 18, 7, 0, 1, [1, 1, 0, 0, 0, 0, 1, 1]>, <144, 11, 29, 18, 7, 0, 1, [1, 1, 0, 0, 0, 0, 1, 1]>, <145, 12, 30, 18, 7, 0, 1, [1, 1, 0, 0, 0, 0, 1, 1]>, <146, 13, 31, 18, 7, 0, 1, [1, 1, 0, 0, 0, 0, 1, 1]>, <147, 14, 32, 18, 7, 0, 1, [1, 1, 0, 0, 0, 0, 1, 1]>, <148, 15, 33, 18, 7, 0, 1, [1, 1, 0, 0, 0, 0, 1, 1]>, <149, 16, 34, 18, 7, 0, 1, [1, 1, 0, 0, 0, 0, 1, 1]>, <150, 17, 35, 18, 7, 0, 1, [1, 1, 0, 0, 0, 0, 1, 1]>, <151, 0, 22, 22, 8, 0, 0, [1, 1, 1, 0, 0, 0, 0, 1]>, <152, 1, 23, 22, 8, 0, 0, [1, 1, 1, 0, 0, 0, 0, 1]>, <153, 2, 24, 22, 8, 0, 0, [1, 1, 1, 0, 0, 0, 0, 1]>, <154, 3, 25, 22, 8, 0, 0, [1, 1, 1, 0, 0, 0, 0, 1]>, <155, 4, 26, 22, 8, 0, 0, [1, 1, 1, 0, 0, 0, 0, 1]>, <156, 5, 27, 22, 8, 0, 0, [1, 1, 1, 0, 0, 0, 0, 1]>, <157, 6, 28, 22, 8, 0, 0, [1, 1, 1, 0, 0, 0, 0, 1]>, <158, 7, 29, 22, 8, 0, 0, [1, 1, 1, 0, 0, 0, 0, 1]>, <159, 8, 30, 22, 8, 0, 0, [1, 1, 1, 0, 0, 0, 0, 1]>, <160, 9, 31, 22, 8, 0, 0, [1, 1, 1, 0, 0, 0, 0, 1]>, <161, 10, 32, 22, 8, 0, 0, [1, 1, 1, 0, 0, 0, 0, 1]>, <162, 11, 33, 22, 8, 0, 0, [1, 1, 1, 0, 0, 0, 0, 1]>, <163, 12, 34, 22, 8, 0, 0, [1, 1, 1, 0, 0, 0, 0, 1]>, <164, 13, 35, 22, 8, 0, 0, [1, 1, 1, 0, 0, 0, 0, 1]>, <165, 0, 20, 20, 9, 0, 0, [1, 1, 1, 0, 0, 0, 0, 1]>, <166, 1, 21, 20, 9, 0, 0, [1, 1, 1, 0, 0, 0, 0, 1]>, <167, 2, 22, 20, 9, 0, 0, [1, 1, 1, 0, 0, 0, 0, 1]>, <168, 3, 23, 20, 9, 0, 0, [1, 1, 1, 0, 0, 0, 0, 1]>, <169, 4, 24, 20, 9, 0, 0, [1, 1, 1, 0, 0, 0, 0, 1]>, <170, 5, 25, 20, 9, 0, 0, [1, 1, 1, 0, 0, 0, 0, 1]>, <171, 6, 26, 20, 9, 0, 0, [1, 1, 1, 0, 0, 0, 0, 1]>, <172, 7, 27, 20, 9, 0, 0, [1, 1, 1, 0, 0, 0, 0, 1]>, <173, 8, 28, 20, 9, 0, 0, [1, 1, 1, 0, 0, 0, 0, 1]>, <174, 9, 29, 20, 9, 0, 0, [1, 1, 1, 0, 0, 0, 0, 1]>, <175, 10, 30, 20, 9, 0, 0, [1, 1, 1, 0, 0, 0, 0, 1]>, <176, 11, 31, 20, 9, 0, 0, [1, 1, 1, 0, 0, 0, 0, 1]>, <177, 12, 32, 20, 9, 0, 0, [1, 1, 1, 0, 0, 0, 0, 1]>, <178, 13, 33, 20, 9, 0, 0, [1, 1, 1, 0, 0, 0, 0, 1]>, <179, 14, 34, 20, 9, 0, 0, [1, 1, 1, 0, 0, 0, 0, 1]>, <180, 15, 35, 20, 9, 0, 0, [1, 1, 1, 0, 0, 0, 0, 1]>, <181, 1, 17, 16, 10, 0, 0, [1, 1, 1, 1, 0, 0, 0, 0]>, <182, 2, 18, 16, 10, 0, 0, [1, 1, 1, 1, 0, 0, 0, 0]>, <183, 3, 19, 16, 10, 0, 0, [1, 1, 1, 1, 0, 0, 0, 0]>, <184, 4, 20, 16, 10, 0, 0, [1, 1, 1, 1, 0, 0, 0, 0]>, <185, 5, 21, 16, 10, 0, 0, [1, 1, 1, 1, 0, 0, 0, 0]>, <186, 6, 22, 16, 10, 0, 0, [1, 1, 1, 1, 0, 0, 0, 0]>, <187, 10, 26, 16, 10, 0, 0, [1, 1, 1, 1, 0, 0, 0, 0]>, <188, 11, 27, 16, 10, 0, 0, [1, 1, 1, 1, 0, 0, 0, 0]>, <189, 12, 28, 16, 10, 0, 0, [1, 1, 1, 1, 0, 0, 0, 0]>, <190, 13, 29, 16, 10, 0, 0, [1, 1, 1, 1, 0, 0, 0, 0]>, <191, 14, 30, 16, 10, 0, 0, [1, 1, 1, 1, 0, 0, 0, 0]>, <192, 15, 31, 16, 10, 0, 0, [1, 1, 1, 1, 0, 0, 0, 0]>, <193, 16, 32, 16, 10, 0, 0, [1, 1, 1, 1, 0, 0, 0, 0]>, <194, 17, 33, 16, 10, 0, 0, [1, 1, 1, 1, 0, 0, 0, 0]>, <195, 18, 34, 16, 10, 0, 0, [1, 1, 1, 1, 0, 0, 0, 0]>, <196, 19, 35, 16, 10, 0, 0, [1, 1, 1, 1, 0, 0, 0, 0]>, <197, 0, 20, 20, 11, 0, 1, [1, 1, 1, 1, 0, 0, 0, 0]>, <198, 1, 21, 20, 11, 0, 1, [1, 1, 1, 1, 0, 0, 0, 0]>, <199, 2, 22, 20, 11, 0, 1, [1, 1, 1, 1, 0, 0, 0, 0]>, <200, 3, 23, 20, 11, 0, 1, [1, 1, 1, 1, 0, 0, 0, 0]>, <201, 4, 24, 20, 11, 0, 1, [1, 1, 1, 1, 0, 0, 0, 0]>, <202, 5, 25, 20, 11, 0, 1, [1, 1, 1, 1, 0, 0, 0, 0]>, <203, 6, 26, 20, 11, 0, 1, [1, 1, 1, 1, 0, 0, 0, 0]>, <204, 7, 27, 20, 11, 0, 1, [1, 1, 1, 1, 0, 0, 0, 0]>, <205, 8, 28, 20, 11, 0, 1, [1, 1, 1, 1, 0, 0, 0, 0]>, <206, 9, 29, 20, 11, 0, 1, [1, 1, 1, 1, 0, 0, 0, 0]>, <207, 10, 30, 20, 11, 0, 1, [1, 1, 1, 1, 0, 0, 0, 0]>, <208, 11, 31, 20, 11, 0, 1, [1, 1, 1, 1, 0, 0, 0, 0]>, <209, 12, 32, 20, 11, 0, 1, [1, 1, 1, 1, 0, 0, 0, 0]>, <210, 13, 33, 20, 11, 0, 1, [1, 1, 1, 1, 0, 0, 0, 0]>, <211, 14, 34, 20, 11, 0, 1, [1, 1, 1, 1, 0, 0, 0, 0]>, <212, 15, 35, 20, 11, 0, 1, [1, 1, 1, 1, 0, 0, 0, 0]>, <213, 0, 18, 18, 12, 1, 0, [1, 0, 0, 0, 0, 1, 1, 1]>, <214, 1, 19, 18, 12, 1, 0, [1, 0, 0, 0, 0, 1, 1, 1]>, <215, 2, 20, 18, 12, 1, 0, [1, 0, 0, 0, 0, 1, 1, 1]>, <216, 3, 21, 18, 12, 1, 0, [1, 0, 0, 0, 0, 1, 1, 1]>, <217, 4, 22, 18, 12, 1, 0, [1, 0, 0, 0, 0, 1, 1, 1]>, <218, 5, 23, 18, 12, 1, 0, [1, 0, 0, 0, 0, 1, 1, 1]>, <219, 6, 24, 18, 12, 1, 0, [1, 0, 0, 0, 0, 1, 1, 1]>, <220, 8, 26, 18, 12, 1, 0, [1, 0, 0, 0, 0, 1, 1, 1]>, <221, 9, 27, 18, 12, 1, 0, [1, 0, 0, 0, 0, 1, 1, 1]>, <222, 10, 28, 18, 12, 1, 0, [1, 0, 0, 0, 0, 1, 1, 1]>, <223, 11, 29, 18, 12, 1, 0, [1, 0, 0, 0, 0, 1, 1, 1]>, <224, 12, 30, 18, 12, 1, 0, [1, 0, 0, 0, 0, 1, 1, 1]>, <225, 13, 31, 18, 12, 1, 0, [1, 0, 0, 0, 0, 1, 1, 1]>, <226, 14, 32, 18, 12, 1, 0, [1, 0, 0, 0, 0, 1, 1, 1]>, <227, 15, 33, 18, 12, 1, 0, [1, 0, 0, 0, 0, 1, 1, 1]>, <228, 16, 34, 18, 12, 1, 0, [1, 0, 0, 0, 0, 1, 1, 1]>, <229, 17, 35, 18, 12, 1, 0, [1, 0, 0, 0, 0, 1, 1, 1]>, <230, 0, 20, 20, 13, 0, 0, [1, 1, 1, 1, 0, 0, 0, 0]>, <231, 1, 21, 20, 13, 0, 0, [1, 1, 1, 1, 0, 0, 0, 0]>, <232, 2, 22, 20, 13, 0, 0, [1, 1, 1, 1, 0, 0, 0, 0]>, <233, 3, 23, 20, 13, 0, 0, [1, 1, 1, 1, 0, 0, 0, 0]>, <234, 4, 24, 20, 13, 0, 0, [1, 1, 1, 1, 0, 0, 0, 0]>, <235, 5, 25, 20, 13, 0, 0, [1, 1, 1, 1, 0, 0, 0, 0]>, <236, 6, 26, 20, 13, 0, 0, [1, 1, 1, 1, 0, 0, 0, 0]>, <237, 7, 27, 20, 13, 0, 0, [1, 1, 1, 1, 0, 0, 0, 0]>, <238, 8, 28, 20, 13, 0, 0, [1, 1, 1, 1, 0, 0, 0, 0]>, <239, 9, 29, 20, 13, 0, 0, [1, 1, 1, 1, 0, 0, 0, 0]>, <240, 10, 30, 20, 13, 0, 0, [1, 1, 1, 1, 0, 0, 0, 0]>, <241, 11, 31, 20, 13, 0, 0, [1, 1, 1, 1, 0, 0, 0, 0]>, <242, 12, 32, 20, 13, 0, 0, [1, 1, 1, 1, 0, 0, 0, 0]>, <243, 13, 33, 20, 13, 0, 0, [1, 1, 1, 1, 0, 0, 0, 0]>, <244, 14, 34, 20, 13, 0, 0, [1, 1, 1, 1, 0, 0, 0, 0]>, <245, 15, 35, 20, 13, 0, 0, [1, 1, 1, 1, 0, 0, 0, 0]>, <246, 0, 19, 19, 14, 0, 1, [1, 0, 0, 0, 0, 1, 1, 1]>, <247, 1, 20, 19, 14, 0, 1, [1, 0, 0, 0, 0, 1, 1, 1]>, <248, 2, 21, 19, 14, 0, 1, [1, 0, 0, 0, 0, 1, 1, 1]>, <249, 3, 22, 19, 14, 0, 1, [1, 0, 0, 0, 0, 1, 1, 1]>, <250, 4, 23, 19, 14, 0, 1, [1, 0, 0, 0, 0, 1, 1, 1]>, <251, 5, 24, 19, 14, 0, 1, [1, 0, 0, 0, 0, 1, 1, 1]>, <252, 6, 25, 19, 14, 0, 1, [1, 0, 0, 0, 0, 1, 1, 1]>, <253, 7, 26, 19, 14, 0, 1, [1, 0, 0, 0, 0, 1, 1, 1]>, <254, 8, 27, 19, 14, 0, 1, [1, 0, 0, 0, 0, 1, 1, 1]>, <255, 9, 28, 19, 14, 0, 1, [1, 0, 0, 0, 0, 1, 1, 1]>, <256, 10, 29, 19, 14, 0, 1, [1, 0, 0, 0, 0, 1, 1, 1]>, <257, 11, 30, 19, 14, 0, 1, [1, 0, 0, 0, 0, 1, 1, 1]>, <258, 12, 31, 19, 14, 0, 1, [1, 0, 0, 0, 0, 1, 1, 1]>, <259, 13, 32, 19, 14, 0, 1, [1, 0, 0, 0, 0, 1, 1, 1]>, <260, 14, 33, 19, 14, 0, 1, [1, 0, 0, 0, 0, 1, 1, 1]>, <261, 15, 34, 19, 14, 0, 1, [1, 0, 0, 0, 0, 1, 1, 1]>, <262, 16, 35, 19, 14, 0, 1, [1, 0, 0, 0, 0, 1, 1, 1]>, <263, 0, 21, 21, 15, 1, 0, [0, 1, 1, 1, 1, 0, 0, 0]>, <264, 1, 22, 21, 15, 1, 0, [0, 1, 1, 1, 1, 0, 0, 0]>, <265, 2, 23, 21, 15, 1, 0, [0, 1, 1, 1, 1, 0, 0, 0]>, <266, 3, 24, 21, 15, 1, 0, [0, 1, 1, 1, 1, 0, 0, 0]>, <267, 4, 25, 21, 15, 1, 0, [0, 1, 1, 1, 1, 0, 0, 0]>, <268, 5, 26, 21, 15, 1, 0, [0, 1, 1, 1, 1, 0, 0, 0]>, <269, 6, 27, 21, 15, 1, 0, [0, 1, 1, 1, 1, 0, 0, 0]>, <270, 7, 28, 21, 15, 1, 0, [0, 1, 1, 1, 1, 0, 0, 0]>, <271, 8, 29, 21, 15, 1, 0, [0, 1, 1, 1, 1, 0, 0, 0]>, <272, 9, 30, 21, 15, 1, 0, [0, 1, 1, 1, 1, 0, 0, 0]>, <273, 10, 31, 21, 15, 1, 0, [0, 1, 1, 1, 1, 0, 0, 0]>, <274, 11, 32, 21, 15, 1, 0, [0, 1, 1, 1, 1, 0, 0, 0]>, <275, 12, 33, 21, 15, 1, 0, [0, 1, 1, 1, 1, 0, 0, 0]>, <276, 13, 34, 21, 15, 1, 0, [0, 1, 1, 1, 1, 0, 0, 0]>, <277, 14, 35, 21, 15, 1, 0, [0, 1, 1, 1, 1, 0, 0, 0]>, <278, 0, 20, 20, 16, 0, 0, [1, 0, 0, 0, 0, 1, 1, 1]>, <279, 1, 21, 20, 16, 0, 0, [1, 0, 0, 0, 0, 1, 1, 1]>, <280, 2, 22, 20, 16, 0, 0, [1, 0, 0, 0, 0, 1, 1, 1]>, <281, 3, 23, 20, 16, 0, 0, [1, 0, 0, 0, 0, 1, 1, 1]>, <282, 4, 24, 20, 16, 0, 0, [1, 0, 0, 0, 0, 1, 1, 1]>, <283, 5, 25, 20, 16, 0, 0, [1, 0, 0, 0, 0, 1, 1, 1]>, <284, 6, 26, 20, 16, 0, 0, [1, 0, 0, 0, 0, 1, 1, 1]>, <285, 7, 27, 20, 16, 0, 0, [1, 0, 0, 0, 0, 1, 1, 1]>, <286, 8, 28, 20, 16, 0, 0, [1, 0, 0, 0, 0, 1, 1, 1]>, <287, 9, 29, 20, 16, 0, 0, [1, 0, 0, 0, 0, 1, 1, 1]>, <288, 10, 30, 20, 16, 0, 0, [1, 0, 0, 0, 0, 1, 1, 1]>, <289, 11, 31, 20, 16, 0, 0, [1, 0, 0, 0, 0, 1, 1, 1]>, <290, 12, 32, 20, 16, 0, 0, [1, 0, 0, 0, 0, 1, 1, 1]>, <291, 13, 33, 20, 16, 0, 0, [1, 0, 0, 0, 0, 1, 1, 1]>, <292, 14, 34, 20, 16, 0, 0, [1, 0, 0, 0, 0, 1, 1, 1]>, <293, 15, 35, 20, 16, 0, 0, [1, 0, 0, 0, 0, 1, 1, 1]>, <294, 0, 19, 19, 17, 1, 0, [1, 0, 0, 0, 0, 1, 1, 1]>, <295, 1, 20, 19, 17, 1, 0, [1, 0, 0, 0, 0, 1, 1, 1]>, <296, 2, 21, 19, 17, 1, 0, [1, 0, 0, 0, 0, 1, 1, 1]>, <297, 3, 22, 19, 17, 1, 0, [1, 0, 0, 0, 0, 1, 1, 1]>, <298, 4, 23, 19, 17, 1, 0, [1, 0, 0, 0, 0, 1, 1, 1]>, <299, 5, 24, 19, 17, 1, 0, [1, 0, 0, 0, 0, 1, 1, 1]>, <300, 6, 25, 19, 17, 1, 0, [1, 0, 0, 0, 0, 1, 1, 1]>, <301, 7, 26, 19, 17, 1, 0, [1, 0, 0, 0, 0, 1, 1, 1]>, <302, 8, 27, 19, 17, 1, 0, [1, 0, 0, 0, 0, 1, 1, 1]>, <303, 9, 28, 19, 17, 1, 0, [1, 0, 0, 0, 0, 1, 1, 1]>, <304, 10, 29, 19, 17, 1, 0, [1, 0, 0, 0, 0, 1, 1, 1]>, <305, 11, 30, 19, 17, 1, 0, [1, 0, 0, 0, 0, 1, 1, 1]>, <306, 12, 31, 19, 17, 1, 0, [1, 0, 0, 0, 0, 1, 1, 1]>, <307, 13, 32, 19, 17, 1, 0, [1, 0, 0, 0, 0, 1, 1, 1]>, <308, 14, 33, 19, 17, 1, 0, [1, 0, 0, 0, 0, 1, 1, 1]>, <309, 15, 34, 19, 17, 1, 0, [1, 0, 0, 0, 0, 1, 1, 1]>, <310, 16, 35, 19, 17, 1, 0, [1, 0, 0, 0, 0, 1, 1, 1]>, <311, 0, 22, 22, 18, 0, 0, [0, 1, 1, 1, 1, 0, 0, 0]>, <312, 1, 23, 22, 18, 0, 0, [0, 1, 1, 1, 1, 0, 0, 0]>, <313, 2, 24, 22, 18, 0, 0, [0, 1, 1, 1, 1, 0, 0, 0]>, <314, 3, 25, 22, 18, 0, 0, [0, 1, 1, 1, 1, 0, 0, 0]>, <315, 4, 26, 22, 18, 0, 0, [0, 1, 1, 1, 1, 0, 0, 0]>, <316, 5, 27, 22, 18, 0, 0, [0, 1, 1, 1, 1, 0, 0, 0]>, <317, 6, 28, 22, 18, 0, 0, [0, 1, 1, 1, 1, 0, 0, 0]>, <318, 7, 29, 22, 18, 0, 0, [0, 1, 1, 1, 1, 0, 0, 0]>, <319, 8, 30, 22, 18, 0, 0, [0, 1, 1, 1, 1, 0, 0, 0]>, <320, 9, 31, 22, 18, 0, 0, [0, 1, 1, 1, 1, 0, 0, 0]>, <321, 10, 32, 22, 18, 0, 0, [0, 1, 1, 1, 1, 0, 0, 0]>, <322, 11, 33, 22, 18, 0, 0, [0, 1, 1, 1, 1, 0, 0, 0]>, <323, 12, 34, 22, 18, 0, 0, [0, 1, 1, 1, 1, 0, 0, 0]>, <324, 13, 35, 22, 18, 0, 0, [0, 1, 1, 1, 1, 0, 0, 0]>, <325, 0, 18, 18, 19, 0, 1, [0, 0, 0, 1, 1, 1, 1, 0]>, <326, 1, 19, 18, 19, 0, 1, [0, 0, 0, 1, 1, 1, 1, 0]>, <327, 2, 20, 18, 19, 0, 1, [0, 0, 0, 1, 1, 1, 1, 0]>, <328, 3, 21, 18, 19, 0, 1, [0, 0, 0, 1, 1, 1, 1, 0]>, <329, 4, 22, 18, 19, 0, 1, [0, 0, 0, 1, 1, 1, 1, 0]>, <330, 5, 23, 18, 19, 0, 1, [0, 0, 0, 1, 1, 1, 1, 0]>, <331, 6, 24, 18, 19, 0, 1, [0, 0, 0, 1, 1, 1, 1, 0]>, <332, 8, 26, 18, 19, 0, 1, [0, 0, 0, 1, 1, 1, 1, 0]>, <333, 9, 27, 18, 19, 0, 1, [0, 0, 0, 1, 1, 1, 1, 0]>, <334, 10, 28, 18, 19, 0, 1, [0, 0, 0, 1, 1, 1, 1, 0]>, <335, 11, 29, 18, 19, 0, 1, [0, 0, 0, 1, 1, 1, 1, 0]>, <336, 12, 30, 18, 19, 0, 1, [0, 0, 0, 1, 1, 1, 1, 0]>, <337, 13, 31, 18, 19, 0, 1, [0, 0, 0, 1, 1, 1, 1, 0]>, <338, 14, 32, 18, 19, 0, 1, [0, 0, 0, 1, 1, 1, 1, 0]>, <339, 15, 33, 18, 19, 0, 1, [0, 0, 0, 1, 1, 1, 1, 0]>, <340, 16, 34, 18, 19, 0, 1, [0, 0, 0, 1, 1, 1, 1, 0]>, <341, 17, 35, 18, 19, 0, 1, [0, 0, 0, 1, 1, 1, 1, 0]>, <342, 0, 17, 17, 20, 0, 0, [0, 0, 0, 0, 1, 1, 1, 1]>, <343, 1, 18, 17, 20, 0, 0, [0, 0, 0, 0, 1, 1, 1, 1]>, <344, 2, 19, 17, 20, 0, 0, [0, 0, 0, 0, 1, 1, 1, 1]>, <345, 3, 20, 17, 20, 0, 0, [0, 0, 0, 0, 1, 1, 1, 1]>, <346, 4, 21, 17, 20, 0, 0, [0, 0, 0, 0, 1, 1, 1, 1]>, <347, 5, 22, 17, 20, 0, 0, [0, 0, 0, 0, 1, 1, 1, 1]>, <348, 6, 23, 17, 20, 0, 0, [0, 0, 0, 0, 1, 1, 1, 1]>, <349, 9, 26, 17, 20, 0, 0, [0, 0, 0, 0, 1, 1, 1, 1]>, <350, 10, 27, 17, 20, 0, 0, [0, 0, 0, 0, 1, 1, 1, 1]>, <351, 11, 28, 17, 20, 0, 0, [0, 0, 0, 0, 1, 1, 1, 1]>, <352, 12, 29, 17, 20, 0, 0, [0, 0, 0, 0, 1, 1, 1, 1]>, <353, 13, 30, 17, 20, 0, 0, [0, 0, 0, 0, 1, 1, 1, 1]>, <354, 14, 31, 17, 20, 0, 0, [0, 0, 0, 0, 1, 1, 1, 1]>, <355, 15, 32, 17, 20, 0, 0, [0, 0, 0, 0, 1, 1, 1, 1]>, <356, 16, 33, 17, 20, 0, 0, [0, 0, 0, 0, 1, 1, 1, 1]>, <357, 17, 34, 17, 20, 0, 0, [0, 0, 0, 0, 1, 1, 1, 1]>, <358, 18, 35, 17, 20, 0, 0, [0, 0, 0, 0, 1, 1, 1, 1]>, <359, 0, 21, 21, 21, 0, 0, [0, 0, 1, 1, 1, 1, 0, 0]>, <360, 1, 22, 21, 21, 0, 0, [0, 0, 1, 1, 1, 1, 0, 0]>, <361, 2, 23, 21, 21, 0, 0, [0, 0, 1, 1, 1, 1, 0, 0]>, <362, 3, 24, 21, 21, 0, 0, [0, 0, 1, 1, 1, 1, 0, 0]>, <363, 4, 25, 21, 21, 0, 0, [0, 0, 1, 1, 1, 1, 0, 0]>, <364, 5, 26, 21, 21, 0, 0, [0, 0, 1, 1, 1, 1, 0, 0]>, <365, 6, 27, 21, 21, 0, 0, [0, 0, 1, 1, 1, 1, 0, 0]>, <366, 7, 28, 21, 21, 0, 0, [0, 0, 1, 1, 1, 1, 0, 0]>, <367, 8, 29, 21, 21, 0, 0, [0, 0, 1, 1, 1, 1, 0, 0]>, <368, 9, 30, 21, 21, 0, 0, [0, 0, 1, 1, 1, 1, 0, 0]>, <369, 10, 31, 21, 21, 0, 0, [0, 0, 1, 1, 1, 1, 0, 0]>, <370, 11, 32, 21, 21, 0, 0, [0, 0, 1, 1, 1, 1, 0, 0]>, <371, 12, 33, 21, 21, 0, 0, [0, 0, 1, 1, 1, 1, 0, 0]>, <372, 13, 34, 21, 21, 0, 0, [0, 0, 1, 1, 1, 1, 0, 0]>, <373, 14, 35, 21, 21, 0, 0, [0, 0, 1, 1, 1, 1, 0, 0]>};
